#system description
SYSTEM = 'relax'
NWRITE = 2
ISTART = 0
ICHARG = 1
LWAVE= .FALSE.
LCHARG = .TRUE.
LREAL = AUTO
LORBIT = 0
ISYM = 2
#electron scf
ALGO = Fast
AMIN = 0.01
ENCUT = 500
PREC = Normal
ISMEAR = 0
SIGMA = 0.1
ISPIN = 1
NELM = 500
EDIFF = 1E-7
GGA = PE
LASPH = .TRUE.
#spin-orbit
LSORBIT = .FALSE.
MAGMOM = 102*0.0
#energy-correction
IVDW = 20
LDIPOL = .FALSE.
IDIPOL = -1
#ionic relaxation and optimization
IBRION = -1
EDIFFG = 1E-3
NSW = 0
ISIF = 2
NFREE = 1
POTIM = 0.5
#parallelization related
KPAR = 16
NPAR = 8
NCORE = 2
NSIM = 4
#VASPSOL
LSOL    = .TRUE.
EB_K    = 78.4
TAU     = 0.0
LRHOION = .FALSE.
LAMBDA_D_K = 3.0
SIGMA_K    = 0.4
NELECT = 374.5
