Ag
 1.0000000000000000
     4.0859999657000001    0.0000000000000000    0.0000000000000000
     0.0000000000000000    4.0859999657000001    0.0000000000000000
     0.0000000000000000    0.0000000000000000   62.6350069404016239
 Ag              
               34
Selective dynamics
Cartesian
  3.0644999743999861  3.0644999743999861 43.5542515647842379   T   T   T
  1.0214999913000138  1.0214999913000138 19.0807553756173860   T   T   T
  3.0644999743999861  1.0214999913000138 17.0438972463652902   T   T   T
  1.0214999913000138  1.0214999913000138 15.0000000000000000   T   T   T
  3.0644999743999861  3.0644999743999861 15.0000000000000000   T   T   T
  3.0644999743999861  1.0214999913000138 21.1133286511446130   T   T   T
  1.0214999913000138  3.0644999743999861 29.2745034872010521   T   T   T
  1.0214999913000138  3.0644999743999861 21.1133286511446130   T   T   T
  1.0214999913000138  1.0214999913000138 23.1455035388014210   T   T   T
  3.0644999743999861  3.0644999743999861 27.2315035045014469   T   T   T
  3.0644999743999861  1.0214999913000138 25.1885035215010191   T   T   T
  1.0214999913000138  3.0644999743999861 25.1885035215010191   T   T   T
  1.0214999913000138  1.0214999913000138 27.2315035045014469   T   T   T
  3.0644999743999861  1.0214999913000138 29.2745034872010521   T   T   T
  3.0644999743999861  3.0644999743999861 19.0807553756173860   T   T   T
  1.0214999913000138  3.0644999743999861 45.5911096940363336   T   T   T
  3.0644999743999861  3.0644999743999861 39.4895034016002029   T   T   T
  1.0214999913000138  1.0214999913000138 43.5542515647842379   T   T   T
  3.0644999743999861  1.0214999913000138 33.3605034532005718   T   T   T
  3.0644999743999861  3.0644999743999861 31.3175034702008119   T   T   T
  1.0214999913000138  1.0214999913000138 35.4035034359001770   T   T   T
  1.0214999913000138  3.0644999743999861 37.4465034189006047   T   T   T
  3.0644999743999861  1.0214999913000138 37.4465034189006047   T   T   T
  3.0644999743999861  3.0644999743999861 35.4035034359001770   T   T   T
  3.0644999743999861  3.0644999743999861 23.1455035388014210   T   T   T
  1.0214999913000138  1.0214999913000138 39.4895034016002029   T   T   T
  1.0214999913000138  3.0644999743999861 33.3605034532005718   T   T   T
  3.0644999743999861  1.0214999913000138 41.5216782892570109   T   T   T
  3.0644999743999861  3.0644999743999861 47.6350069404016239   T   T   T
  1.0214999913000138  1.0214999913000138 31.3175034702008119   T   T   T
  1.0214999913000138  1.0214999913000138 47.6350069404016239   T   T   T
  3.0644999743999861  1.0214999913000138 45.5911096940363336   T   T   T
  1.0214999913000138  3.0644999743999861 41.5216782892570109   T   T   T
  1.0214999913000138  3.0644999743999861 17.0438972463652902   T   T   T
Cartesian
  0.0000000000000000  0.0000000000000000  0.0000000000000000
  0.0000000000000000  0.0000000000000000  0.0000000000000000
  0.0000000000000000  0.0000000000000000  0.0000000000000000
  0.0000000000000000  0.0000000000000000  0.0000000000000000
  0.0000000000000000  0.0000000000000000  0.0000000000000000
  0.0000000000000000  0.0000000000000000  0.0000000000000000
  0.0000000000000000  0.0000000000000000  0.0000000000000000
  0.0000000000000000  0.0000000000000000  0.0000000000000000
  0.0000000000000000  0.0000000000000000  0.0000000000000000
  0.0000000000000000  0.0000000000000000  0.0000000000000000
  0.0000000000000000  0.0000000000000000  0.0000000000000000
  0.0000000000000000  0.0000000000000000  0.0000000000000000
  0.0000000000000000  0.0000000000000000  0.0000000000000000
  0.0000000000000000  0.0000000000000000  0.0000000000000000
  0.0000000000000000  0.0000000000000000  0.0000000000000000
  0.0000000000000000  0.0000000000000000  0.0000000000000000
  0.0000000000000000  0.0000000000000000  0.0000000000000000
  0.0000000000000000  0.0000000000000000  0.0000000000000000
  0.0000000000000000  0.0000000000000000  0.0000000000000000
  0.0000000000000000  0.0000000000000000  0.0000000000000000
  0.0000000000000000  0.0000000000000000  0.0000000000000000
  0.0000000000000000  0.0000000000000000  0.0000000000000000
  0.0000000000000000  0.0000000000000000  0.0000000000000000
  0.0000000000000000  0.0000000000000000  0.0000000000000000
  0.0000000000000000  0.0000000000000000  0.0000000000000000
  0.0000000000000000  0.0000000000000000  0.0000000000000000
  0.0000000000000000  0.0000000000000000  0.0000000000000000
  0.0000000000000000  0.0000000000000000  0.0000000000000000
  0.0000000000000000  0.0000000000000000  0.0000000000000000
  0.0000000000000000  0.0000000000000000  0.0000000000000000
  0.0000000000000000  0.0000000000000000  0.0000000000000000
  0.0000000000000000  0.0000000000000000  0.0000000000000000
  0.0000000000000000  0.0000000000000000  0.0000000000000000
  0.0000000000000000  0.0000000000000000  0.0000000000000000
